
Gurobi 9.5.0 (linux64) logging started Tue Nov  7 13:31:17 2023

Set parameter LogFile to value "/lustre1/scratch/348/vsc34888/JointResearch/05.Models/06.Benchmarking/E.Representative_days_based_on_Line_Benefits_OptModel/9n_ByStages_nc80/openStarNet_9n_ByStages_nc80.log"
Set parameter Method to value 2
Set parameter MIPFocus to value 1
Set parameter Presolve to value 2
Set parameter RINS to value 100
Set parameter MIPGap to value 0.01
Set parameter Threads to value 36
Set parameter TimeLimit to value 604800
Set parameter IterationLimit to value 760000000
Gurobi Optimizer version 9.5.0 build v9.5.0rc5 (linux64)
Thread count: 36 physical cores, 36 logical processors, using up to 36 threads
Optimize a model with 20963 rows, 11091 columns and 65261 nonzeros
Model fingerprint: 0x1e0e5833
Variable types: 11055 continuous, 36 integer (36 binary)
Coefficient statistics:
  Matrix range     [8e-04, 2e+03]
  Objective range  [1e+00, 1e+00]
  Bounds range     [4e-04, 2e+00]
  RHS range        [4e-04, 1e+00]
Presolve removed 6803 rows and 3444 columns
Presolve time: 0.07s
Presolved: 14160 rows, 7647 columns, 50091 nonzeros
Variable types: 7611 continuous, 36 integer (36 binary)
Found heuristic solution: objective 851.2628294
Root relaxation presolved: 14160 rows, 7647 columns, 50091 nonzeros

Root barrier log...

Ordering time: 0.01s

Barrier statistics:
 Dense cols : 36
 AA' NZ     : 1.906e+05
 Factor NZ  : 3.883e+05 (roughly 12 MB of memory)
 Factor Ops : 1.624e+07 (less than 1 second per iteration)
 Threads    : 36

                  Objective                Residual
Iter       Primal          Dual         Primal    Dual     Compl     Time
   0   3.64324120e+05 -7.74602480e+07  6.26e+00 5.32e+02  8.35e+03     0s
   1   5.18731791e+04 -2.21188121e+07  6.86e-01 7.27e-09  1.09e+03     0s
   2   1.58438881e+04 -2.93940619e+06  1.20e-03 2.08e-09  1.07e+02     0s
   3   8.78883107e+03 -1.13351146e+05  5.06e-06 7.14e-11  4.40e+00     0s
   4   1.61806832e+03 -2.13669938e+04  4.33e-13 1.25e-11  8.28e-01     0s
   5   7.72134262e+02 -6.43267343e+03  2.23e-13 3.56e-12  2.59e-01     0s
   6   5.40227978e+02 -3.00201808e+03  1.78e-13 1.82e-12  1.28e-01     0s
   7   4.13617477e+02 -1.44312780e+03  1.42e-13 1.82e-12  6.69e-02     0s
   8   2.64839140e+02 -4.61214478e+02  3.17e-13 9.09e-13  2.61e-02     0s
   9   1.47688927e+02 -8.90153802e+01  7.69e-13 9.09e-13  8.52e-03     0s
  10   1.20728173e+02  3.95126990e+01  2.69e-13 1.82e-12  2.92e-03     0s
  11   1.03859682e+02  6.74342817e+01  1.85e-12 1.82e-12  1.31e-03     0s
  12   9.52681765e+01  7.52208213e+01  1.18e-12 9.09e-13  7.22e-04     0s
  13   9.27051456e+01  8.03442176e+01  1.69e-12 1.82e-12  4.45e-04     0s
  14   9.09950312e+01  8.26172846e+01  5.02e-12 9.09e-13  3.02e-04     0s
  15   9.07409052e+01  8.57796674e+01  5.52e-12 9.09e-13  1.79e-04     0s
  16   9.00322029e+01  8.61103655e+01  3.30e-11 9.09e-13  1.41e-04     0s
  17   8.97608347e+01  8.77726160e+01  1.96e-11 1.82e-12  7.16e-05     0s
  18   8.97481826e+01  8.78268618e+01  1.90e-11 1.82e-12  6.92e-05     0s
  19   8.97348676e+01  8.84176220e+01  1.83e-11 9.09e-13  4.74e-05     0s
  20   8.96519430e+01  8.85868537e+01  1.47e-11 9.09e-13  3.84e-05     0s
  21   8.94043443e+01  8.91527828e+01  2.97e-11 1.82e-12  9.06e-06     0s
  22   8.93531105e+01  8.93081695e+01  6.12e-11 1.82e-12  1.62e-06     0s
  23   8.93278779e+01  8.93278307e+01  2.48e-11 1.82e-12  1.70e-09     0s
  24   8.93278519e+01  8.93278519e+01  2.65e-11 1.82e-12  1.70e-12     0s

Barrier solved model in 24 iterations and 0.47 seconds (0.32 work units)
Optimal objective 8.93278519e+01


Root relaxation: objective 8.932785e+01, 688 iterations, 0.36 seconds (0.20 work units)

    Nodes    |    Current Node    |     Objective Bounds      |     Work
 Expl Unexpl |  Obj  Depth IntInf | Incumbent    BestBd   Gap | It/Node Time

     0     0   89.32785    0    6  851.26283   89.32785  89.5%     -    0s
H    0     0                     744.7573802   89.32785  88.0%     -    0s
H    0     0                     744.6701661   97.21185  86.9%     -    0s
     0     0   97.21185    0    1  744.67017   97.21185  86.9%     -    0s
H    0     0                      98.2443991   97.21185  1.05%     -    0s
     0     0   97.21185    0    1   98.24440   97.21185  1.05%     -    0s
H    0     0                      98.1705425   97.21185  0.98%     -    0s

Cutting planes:
  Gomory: 1
  MIR: 221
  Relax-and-lift: 2

Explored 1 nodes (1076 simplex iterations) in 0.85 seconds (0.56 work units)
Thread count was 36 (of 36 available processors)

Solution count 5: 98.1705 98.2444 744.67 ... 851.263

Optimal solution found (tolerance 1.00e-02)
Best objective 9.817054248099e+01, best bound 9.721184692191e+01, gap 0.9766%

Gurobi 9.5.0 (linux64) logging started Tue Nov  7 13:31:21 2023

Set parameter LogFile to value "/lustre1/scratch/348/vsc34888/JointResearch/05.Models/06.Benchmarking/E.Representative_days_based_on_Line_Benefits_OptModel/9n_ByStages_nc80/openStarNet_9n_ByStages_nc80.log"
Set parameter Method to value 2
Set parameter MIPFocus to value 1
Set parameter Presolve to value 2
Set parameter RINS to value 100
Set parameter MIPGap to value 0.01
Set parameter Threads to value 36
Set parameter TimeLimit to value 604800
Set parameter IterationLimit to value 760000000
No parameters matching 'relax_integrality' found
Gurobi Optimizer version 9.5.0 build v9.5.0rc5 (linux64)
Thread count: 36 physical cores, 36 logical processors, using up to 36 threads
Optimize a model with 20963 rows, 11055 columns and 53705 nonzeros
Model fingerprint: 0xa63d0cea
Coefficient statistics:
  Matrix range     [8e-04, 2e+03]
  Objective range  [1e+00, 1e+00]
  Bounds range     [4e-04, 2e+00]
  RHS range        [4e-04, 2e+01]
Presolve removed 18083 rows and 6084 columns
Presolve time: 0.02s
Presolved: 2880 rows, 4971 columns, 10971 nonzeros

Ordering time: 0.00s

Barrier statistics:
 AA' NZ     : 8.080e+03
 Factor NZ  : 2.960e+04 (roughly 3 MB of memory)
 Factor Ops : 3.646e+05 (less than 1 second per iteration)
 Threads    : 1

                  Objective                Residual
Iter       Primal          Dual         Primal    Dual     Compl     Time
   0   4.06562921e+05 -4.58676897e+07  4.13e+00 1.82e-12  9.99e+03     0s
   1   6.15994792e+04 -9.15347789e+06  4.37e-01 6.39e-12  1.20e+03     0s
   2   1.92377322e+04 -1.47043205e+06  1.56e-02 9.21e-12  1.41e+02     0s
   3   1.09886684e+04 -5.37239397e+04  5.03e-06 3.64e-12  5.94e+00     0s
   4   1.61760471e+03 -1.04876983e+04  7.26e-08 3.64e-12  1.11e+00     0s
   5   7.08774015e+02 -2.57098871e+03  9.45e-09 1.82e-12  3.01e-01     0s
   6   3.78004556e+02 -1.03371111e+03  2.57e-09 1.82e-12  1.29e-01     0s
   7   2.55871496e+02 -1.73242678e+02  1.20e-09 1.82e-12  3.94e-02     0s
   8   1.44790065e+02  1.19703276e+01  2.34e-10 9.09e-13  1.22e-02     0s
   9   1.15381644e+02  7.18568599e+01  7.63e-11 1.82e-12  3.99e-03     0s
  10   1.03914739e+02  8.69844861e+01  2.34e-11 1.82e-12  1.55e-03     0s
  11   9.96335394e+01  9.31046029e+01  5.50e-12 1.82e-12  5.99e-04     0s
  12   9.85067933e+01  9.68368940e+01  1.43e-12 1.82e-12  1.53e-04     0s
  13   9.81805299e+01  9.80478501e+01  7.25e-13 1.82e-12  1.22e-05     0s
  14   9.81706549e+01  9.81703080e+01  7.38e-13 1.82e-12  3.18e-08     0s
  15   9.81705426e+01  9.81705422e+01  2.90e-13 1.82e-12  3.18e-11     0s

Barrier solved model in 15 iterations and 0.05 seconds (0.05 work units)
Optimal objective 9.81705426e+01

Crossover log...

     933 DPushes remaining with DInf 0.0000000e+00                 0s
       0 DPushes remaining with DInf 0.0000000e+00                 0s

      88 PPushes remaining with PInf 0.0000000e+00                 0s
       0 PPushes remaining with PInf 0.0000000e+00                 0s

  Push phase complete: Pinf 0.0000000e+00, Dinf 1.0340687e-13      0s

Iteration    Objective       Primal Inf.    Dual Inf.      Time
     189    9.8170542e+01   0.000000e+00   0.000000e+00      0s

Solved in 189 iterations and 0.07 seconds (0.05 work units)
Optimal objective  9.817054248e+01

Gurobi 11.0.0 (linux64) logging started Wed Apr 10 21:40:49 2024

Set parameter LogFile to value "/lustre1/scratch/348/vsc34888/JointResearch/05.Models/06.Benchmarking/E.Representative_days_based_on_Line_Benefits_OptModel/9n_ByStages_nc80/openStarNet_9n_ByStages_nc80.log"
Set parameter Method to value 2
Set parameter MIPFocus to value 1
Set parameter Presolve to value 2
Set parameter RINS to value 100
Set parameter MIPGap to value 0.01
Set parameter Threads to value 36
Set parameter TimeLimit to value 259200
Set parameter IterationLimit to value 760000000
Gurobi Optimizer version 11.0.0 build v11.0.0rc2 (linux64 - "Rocky Linux 8.8 (Green Obsidian)")

CPU model: Intel(R) Xeon(R) Gold 6140 CPU @ 2.30GHz, instruction set [SSE2|AVX|AVX2|AVX512]
Thread count: 36 physical cores, 36 logical processors, using up to 36 threads

Optimize a model with 20963 rows, 11018 columns and 63042 nonzeros
Model fingerprint: 0xba7628ab
Variable types: 10982 continuous, 36 integer (36 binary)
Coefficient statistics:
  Matrix range     [8e-04, 3e+03]
  Objective range  [1e+00, 1e+00]
  Bounds range     [4e-04, 2e+00]
  RHS range        [4e-04, 1e+00]
Presolve removed 7123 rows and 3764 columns
Presolve time: 0.08s
Presolved: 13840 rows, 7254 columns, 47218 nonzeros
Variable types: 7218 continuous, 36 integer (36 binary)
Found heuristic solution: objective 894.2050087
Root relaxation presolved: 13840 rows, 7254 columns, 47218 nonzeros

Root barrier log...

Ordering time: 0.01s

Barrier statistics:
 Dense cols : 36
 AA' NZ     : 1.639e+05
 Factor NZ  : 3.242e+05 (roughly 11 MB of memory)
 Factor Ops : 1.080e+07 (less than 1 second per iteration)
 Threads    : 36

                  Objective                Residual
Iter       Primal          Dual         Primal    Dual     Compl     Time
   0   4.74625751e+05 -6.42465052e+07  7.16e+00 2.77e+02  9.20e+03     0s
   1   7.87233341e+04 -2.58857343e+07  1.00e+00 2.48e-09  1.41e+03     0s
   2   1.83030338e+04 -3.94874924e+06  2.52e-02 6.95e-09  1.51e+02     0s
   3   1.03718991e+04 -7.14508701e+04  7.73e-14 7.74e-11  3.03e+00     0s
   4   1.81861262e+03 -2.15900680e+04  8.79e-14 2.02e-11  8.67e-01     0s
   5   8.75015418e+02 -7.12225991e+03  5.86e-14 6.47e-12  2.96e-01     0s
   6   6.82700133e+02 -2.35531386e+03  7.59e-14 2.11e-12  1.13e-01     0s
   7   4.84306177e+02 -1.18327321e+03  4.35e-14 1.82e-12  6.18e-02     0s
   8   3.03332149e+02 -3.93522809e+02  9.50e-14 9.09e-13  2.58e-02     1s
   9   1.56677851e+02 -9.93619241e+00  2.16e-13 1.82e-12  6.17e-03     1s
  10   1.20716341e+02  6.06399663e+01  2.53e-13 1.82e-12  2.23e-03     1s
  11   1.07502175e+02  7.59015202e+01  1.99e-12 9.09e-13  1.17e-03     1s
  12   1.02473915e+02  8.13802334e+01  1.36e-12 1.82e-12  7.82e-04     1s
  13   9.88886618e+01  8.52213675e+01  2.83e-12 1.82e-12  5.06e-04     1s
  14   9.82473808e+01  9.05543258e+01  1.65e-12 9.09e-13  2.85e-04     1s
  15   9.76967615e+01  9.25103132e+01  1.93e-12 9.09e-13  1.92e-04     1s
  16   9.70191002e+01  9.62871771e+01  7.04e-12 1.82e-12  2.71e-05     1s
  17   9.69887163e+01  9.66604700e+01  1.13e-11 1.82e-12  1.22e-05     1s
  18   9.68965394e+01  9.68930922e+01  6.80e-12 1.82e-12  1.28e-07     1s
  19   9.68954636e+01  9.68954603e+01  1.39e-09 9.09e-13  1.28e-10     1s
  20   9.68954626e+01  9.68954626e+01  4.03e-12 1.82e-12  1.28e-13     1s

Barrier solved model in 20 iterations and 0.87 seconds (0.27 work units)
Optimal objective 9.68954626e+01


Root relaxation: objective 9.689546e+01, 675 iterations, 0.83 seconds (0.17 work units)

    Nodes    |    Current Node    |     Objective Bounds      |     Work
 Expl Unexpl |  Obj  Depth IntInf | Incumbent    BestBd   Gap | It/Node Time

     0     0   96.89546    0    4  894.20501   96.89546  89.2%     -    1s
H    0     0                     749.4786656   96.89546  87.1%     -    1s
     0     0  104.66545    0    1  749.47867  104.66545  86.0%     -    1s
H    0     0                     105.4516267  104.66545  0.75%     -    1s

Cutting planes:
  Gomory: 1
  MIR: 26

Explored 1 nodes (854 simplex iterations) in 1.73 seconds (0.41 work units)
Thread count was 36 (of 36 available processors)

Solution count 3: 105.452 749.479 894.205 

Optimal solution found (tolerance 1.00e-02)
Best objective 1.054516267489e+02, best bound 1.046654525555e+02, gap 0.7455%

Gurobi 11.0.0 (linux64) logging started Wed Apr 10 21:40:53 2024

Set parameter LogFile to value "/lustre1/scratch/348/vsc34888/JointResearch/05.Models/06.Benchmarking/E.Representative_days_based_on_Line_Benefits_OptModel/9n_ByStages_nc80/openStarNet_9n_ByStages_nc80.log"
Set parameter Method to value 2
Set parameter MIPFocus to value 1
Set parameter Presolve to value 2
Set parameter RINS to value 100
Set parameter MIPGap to value 0.01
Set parameter Threads to value 36
Set parameter TimeLimit to value 259200
Set parameter IterationLimit to value 760000000
Gurobi Optimizer version 11.0.0 build v11.0.0rc2 (linux64 - "Rocky Linux 8.8 (Green Obsidian)")

CPU model: Intel(R) Xeon(R) Gold 6140 CPU @ 2.30GHz, instruction set [SSE2|AVX|AVX2|AVX512]
Thread count: 36 physical cores, 36 logical processors, using up to 36 threads

Optimize a model with 20963 rows, 10982 columns and 51486 nonzeros
Model fingerprint: 0xda45f559
Coefficient statistics:
  Matrix range     [8e-04, 3e+03]
  Objective range  [1e+00, 1e+00]
  Bounds range     [4e-04, 2e+00]
  RHS range        [4e-04, 2e+01]
Presolve removed 19043 rows and 7298 columns
Presolve time: 0.02s
Presolved: 1920 rows, 3684 columns, 8337 nonzeros

Ordering time: 0.00s

Barrier statistics:
 AA' NZ     : 4.367e+03
 Factor NZ  : 1.488e+04 (roughly 2 MB of memory)
 Factor Ops : 1.395e+05 (less than 1 second per iteration)
 Threads    : 1

                  Objective                Residual
Iter       Primal          Dual         Primal    Dual     Compl     Time
   0   3.42792804e+05 -1.26770756e+07  5.58e+00 3.26e+02  7.12e+03     0s
   1   5.05584858e+04 -6.12543993e+06  5.21e-01 6.59e-12  1.07e+03     0s
   2   1.47100486e+04 -8.96447391e+05  6.06e-03 6.31e-12  1.08e+02     0s
   3   7.06456544e+03 -2.00396829e+04  1.72e-15 8.48e-12  3.19e+00     0s
   4   1.08268854e+03 -4.13965039e+03  1.08e-15 1.82e-12  6.14e-01     0s
   5   6.07311404e+02 -1.01691191e+03  7.22e-16 9.09e-13  1.91e-01     0s
   6   4.64848557e+02 -3.26056651e+02  2.28e-15 1.82e-12  9.30e-02     0s
   7   2.25033004e+02 -5.57131073e+01  1.22e-15 9.09e-13  3.30e-02     0s
   8   1.60081445e+02  3.33297115e+01  1.55e-15 1.82e-12  1.49e-02     0s
   9   1.19460057e+02  8.37124182e+01  4.05e-15 1.82e-12  4.20e-03     0s
  10   1.08556891e+02  1.00086423e+02  2.44e-15 1.82e-12  9.96e-04     0s
  11   1.06205307e+02  1.04889931e+02  1.12e-14 1.82e-12  1.55e-04     0s
  12   1.05611301e+02  1.05252028e+02  3.25e-14 1.82e-12  4.23e-05     0s
  13   1.05468637e+02  1.05407984e+02  8.76e-14 9.09e-13  7.13e-06     0s
  14   1.05451838e+02  1.05451046e+02  1.92e-14 9.09e-13  9.31e-08     0s
  15   1.05451627e+02  1.05451626e+02  2.42e-13 1.36e-12  9.33e-11     0s

Barrier solved model in 15 iterations and 0.05 seconds (0.04 work units)
Optimal objective 1.05451627e+02

Crossover log...

     924 DPushes remaining with DInf 0.0000000e+00                 0s
       0 DPushes remaining with DInf 0.0000000e+00                 0s

       4 PPushes remaining with PInf 0.0000000e+00                 0s
       0 PPushes remaining with PInf 0.0000000e+00                 0s

  Push phase complete: Pinf 0.0000000e+00, Dinf 4.8617360e-14      0s

Iteration    Objective       Primal Inf.    Dual Inf.      Time
      91    1.0545163e+02   0.000000e+00   0.000000e+00      0s

Solved in 91 iterations and 0.06 seconds (0.04 work units)
Optimal objective  1.054516267e+02
